;(set-option :produce-unsat-cores true )
(set-logic ALL_SUPPORTED )
(declare-sort A$ 0 )
(declare-sort Nat$ 0 )
(declare-sort A_set$ 0 )
(declare-sort A_a_fun$ 0 )
(declare-sort A_llist_a_llist_fun$ 0 )
(declare-sort A_llist$ 0)
(declare-fun lNil$ ()A_llist$)
(declare-fun lhd$ (A_llist$)A$)
(declare-fun ltl$ (A_llist$)A_llist$)
(declare-fun lCons$ (A$ A_llist$ )A_llist$)
(declare-datatypes ()((A_list$ (nil$ )(cons$ (hd$ A$ )(tl$ A_list$ )))))
(declare-fun uu$ ()A_llist_a_llist_fun$ )
(declare-fun xs$ ()A_list$ )
(declare-fun lmap$ (A_a_fun$ A_llist$ )A_llist$ )
(declare-fun lset$ (A_llist$ )A_set$ )
(declare-fun lnull$ (A_llist$ )Bool )
(declare-fun compow$ (Nat$ A_llist_a_llist_fun$ A_llist$ )A_llist$ )
(declare-fun ldropn$ (Nat$ A_llist$ )A_llist$ )
(declare-fun member$ (A$ A_set$ )Bool )
(declare-fun fun_app$ (A_llist_a_llist_fun$ A_llist$ )A_llist$ )
(declare-fun lfinite$ (A_llist$ )Bool )
(declare-fun lprefix$ (A_llist$ A_llist$ )Bool )
(declare-fun fun_app$a (A_a_fun$ A$ )A$ )
(declare-fun iterates$ (A_a_fun$ A$ )A_llist$ )
(declare-fun llist_of$ (A_list$ )A_llist$ )
(assert (! (forall ((?v0 A_llist$ ))(! (= (fun_app$ uu$ ?v0 )(ltl$ ?v0 )):pattern ((fun_app$ uu$ ?v0 )))):named a0 ))
(assert (! (not (= (ltl$ (llist_of$ xs$ ))(llist_of$ (tl$ xs$ )))):named a1 ))
(assert (! (forall ((?v0 A_a_fun$ )(?v1 A$ ))(= (ltl$ (iterates$ ?v0 ?v1 ))(iterates$ ?v0 (fun_app$a ?v0 ?v1 )))):named a2 ))
(assert (! (forall ((?v0 A_llist$ ))(= (lfinite$ (ltl$ ?v0 ))(lfinite$ ?v0 ))):named a3 ))
(assert (! (forall ((?v0 A_a_fun$ )(?v1 A_llist$ ))(= (ltl$ (lmap$ ?v0 ?v1 ))(lmap$ ?v0 (ltl$ ?v1 )))):named a4 ))
(assert (! (forall ((?v0 A_llist$ )(?v1 A_llist$ ))(=> (lprefix$ ?v0 ?v1 )(lprefix$ (ltl$ ?v0 )(ltl$ ?v1 )))):named a5 ))
(assert (! (= (ltl$ lNil$ )lNil$ ):named a6 ))
(assert (! (forall ((?v0 A$ )(?v1 A_llist$ ))(=> (member$ ?v0 (lset$ (ltl$ ?v1 )))(member$ ?v0 (lset$ ?v1 )))):named a7 ))
(assert (! (forall ((?v0 Nat$ )(?v1 A_llist$ ))(! (= (ldropn$ ?v0 ?v1 )(compow$ ?v0 uu$ ?v1 )):pattern ((ldropn$ ?v0 ?v1 )))):named a8 ))
(assert (! (forall ((?v0 A_llist$ ))(=> (lnull$ ?v0 )(lnull$ (ltl$ ?v0 )))):named a9 ))
(assert (! (forall ((?v0 A$ )(?v1 A_llist$ ))(! (= (ltl$ (lCons$ ?v0 ?v1 ))?v1 ):pattern ((lCons$ ?v0 ?v1 )))):named a10 ))
(assert (! (forall ((?v0 A_list$ ))(= (lhd$ (llist_of$ ?v0 ))(hd$ ?v0 ))):named a11 ))
(assert (! (forall ((?v0 A_llist$ ))(lprefix$ ?v0 ?v0 )):named a12 ))
(assert (! (forall ((?v0 A_llist$ ))(lprefix$ ?v0 ?v0 )):named a13 ))
(assert (! (forall ((?v0 A$ )(?v1 A_llist$ )(?v2 A$ )(?v3 A_llist$ ))(= (= (lCons$ ?v0 ?v1 )(lCons$ ?v2 ?v3 ))(and (= ?v0 ?v2 )(= ?v1 ?v3 )))):named a14 ))
(check-sat )
;(get-unsat-core )
